
   AbsCon 1.41 (January, 2014) - defaultConfiguration

   
   instance
        framework=CSP  name=Isomorphism-/cluster/gpg/ciaran/sip-benchmarks/benchmarks/meshes-CVIU11/patterns/pattern6-/cluster/gpg/ciaran/sip-benchmarks/benchmarks/meshes-CVIU11/targets/target303
        parameters=/cluster/gpg/ciaran/sip-benchmarks/benchmarks/meshes-CVIU11/patterns/pattern6,/cluster/gpg/ciaran/sip-benchmarks/benchmarks/meshes-CVIU11/targets/target303
      

   loading variables...
        nbVariables=199  nbDomainTypes=1  nbTotalValues=405960  domainSizes=(2040:199)
          =>  wckTime=0.254  cpuTime=0.332  mem=44M864

   loading objectives...

   loading constraints...
        nbConstraints=540  nbSpecificConstraints=1  nbExtensionStructures=(1,shared:538)  nbConflictsStructures=(1,shared:538,unbuilt:1)
        degrees=(4:25)(5:32)(6:29)...(8:26)(9:1)(11:6)  arities=(2:539)(199:1)  types=(AllDifferent:1)(ConstraintHardExtensionV-Bits:539)
          =>  wckTime=0.578  cpuTime=0.624  mem=67M632

   INFO : <!-- Start saving the XML representation -->

   INFO : <!-- Stop saving the XML representation of target303.xml -->

   Solver SolverBacktrack being built... 
          =>  wckTime=1.525  cpuTime=1.509  mem=273M213

   
   search
        run=0  nbConstraintChecks=0  depth=(min:0,max:0,avg:1)  nbEffectivePropagations=32759  nbRevisions=180804  nbUselessRevisions=148221
        nbAssignments=1650  nbFailedAssignments=1650  nbBacktracks=1  nbVisitedNodes=3301  nbRestartNogoods=0
          =>  wckTime=121.042  cpuTime=121.2  mem=484M944

   
   global
        nbConstraintChecks=0  nbEffectivePropagations=32759  nbRevisions=180804  nbUselessRevisions=148221  nbRestartNogoods=0
        solvingWckTime=121.043  expiredTime=no  totalExploration=yes  nbFoundSolutions=0  Stop=FULL_EXPLORATION
          =>  wckTime=122.569  cpuTime=121.2  mem=484M944

s UNSATISFIABLE
d NODES 1650

   totalWckTime=122.465  totalCpuTime=121.202
